p cnf 250 375
1 210 0
1 120 0
1 249 0
2 49 0
2 57 0
2 93 0
3 48 0
3 143 0
3 247 0
4 191 0
4 176 0
4 123 0
5 181 0
5 11 0
5 88 0
6 228 0
6 242 0
6 46 0
7 152 0
7 65 0
7 77 0
8 135 0
8 86 0
8 223 0
9 74 0
9 13 0
9 46 0
10 70 0
10 217 0
10 238 0
11 213 0
11 22 0
12 125 0
12 123 0
12 54 0
13 81 0
13 72 0
14 115 0
14 121 0
14 161 0
15 237 0
15 107 0
15 179 0
16 60 0
16 23 0
16 194 0
17 113 0
17 127 0
17 221 0
18 142 0
18 47 0
18 196 0
19 193 0
19 157 0
19 52 0
20 132 0
20 94 0
20 173 0
21 95 0
21 125 0
21 106 0
22 172 0
22 32 0
23 180 0
23 120 0
24 192 0
24 145 0
24 36 0
25 145 0
25 39 0
25 126 0
26 59 0
26 204 0
26 138 0
27 240 0
27 85 0
27 72 0
28 134 0
28 61 0
28 44 0
29 249 0
29 87 0
29 33 0
30 169 0
30 224 0
30 153 0
31 245 0
31 103 0
31 222 0
32 51 0
32 101 0
33 217 0
33 53 0
34 234 0
34 64 0
34 241 0
35 206 0
35 149 0
35 97 0
36 138 0
36 58 0
37 76 0
37 100 0
37 203 0
38 222 0
38 162 0
38 66 0
39 92 0
39 193 0
40 178 0
40 171 0
40 231 0
41 109 0
41 243 0
41 108 0
42 224 0
42 142 0
42 99 0
43 62 0
43 237 0
43 200 0
44 70 0
44 110 0
45 197 0
45 153 0
45 94 0
46 246 0
47 77 0
47 189 0
48 167 0
48 127 0
49 221 0
49 73 0
50 75 0
50 175 0
50 92 0
51 146 0
51 186 0
52 138 0
52 124 0
53 104 0
53 233 0
54 199 0
54 184 0
55 116 0
55 62 0
55 195 0
56 205 0
56 223 0
56 76 0
57 111 0
57 133 0
58 166 0
58 218 0
59 225 0
59 193 0
60 248 0
60 205 0
61 190 0
61 130 0
62 234 0
63 105 0
63 129 0
63 71 0
64 126 0
64 160 0
65 187 0
65 75 0
66 204 0
66 172 0
67 148 0
67 216 0
67 237 0
68 96 0
68 99 0
68 144 0
69 147 0
69 176 0
69 99 0
70 121 0
71 155 0
71 185 0
72 151 0
73 124 0
73 140 0
74 143 0
74 166 0
75 219 0
76 127 0
77 165 0
78 132 0
78 84 0
78 168 0
79 212 0
79 214 0
79 226 0
80 218 0
80 227 0
80 82 0
81 215 0
81 83 0
82 196 0
82 146 0
83 220 0
83 103 0
84 210 0
84 164 0
85 232 0
85 111 0
86 131 0
86 244 0
87 211 0
87 180 0
88 113 0
88 136 0
89 126 0
89 119 0
89 227 0
90 182 0
90 206 0
90 117 0
91 97 0
91 150 0
91 135 0
92 131 0
93 233 0
93 181 0
94 151 0
95 181 0
95 140 0
96 98 0
96 157 0
97 159 0
98 186 0
98 238 0
100 247 0
100 163 0
101 171 0
101 229 0
102 128 0
102 148 0
102 235 0
103 199 0
104 172 0
104 182 0
105 152 0
105 119 0
106 128 0
106 158 0
107 223 0
107 167 0
108 150 0
108 170 0
109 192 0
109 246 0
110 187 0
110 134 0
111 162 0
112 165 0
112 155 0
112 210 0
113 129 0
114 158 0
114 207 0
114 196 0
115 154 0
115 122 0
116 231 0
116 165 0
117 184 0
117 179 0
118 202 0
118 226 0
118 206 0
119 197 0
120 208 0
121 159 0
122 173 0
122 144 0
123 218 0
124 194 0
125 217 0
128 147 0
129 139 0
130 248 0
130 250 0
131 168 0
132 184 0
133 243 0
133 152 0
134 203 0
135 211 0
136 159 0
136 156 0
137 205 0
137 241 0
137 183 0
139 235 0
139 236 0
140 189 0
141 208 0
141 164 0
141 229 0
142 191 0
143 240 0
144 170 0
145 157 0
146 211 0
147 225 0
148 230 0
149 222 0
149 244 0
150 209 0
151 234 0
153 212 0
154 169 0
154 213 0
155 200 0
156 195 0
156 236 0
158 188 0
160 207 0
160 204 0
161 233 0
161 183 0
162 180 0
163 219 0
163 213 0
164 214 0
166 215 0
167 188 0
168 201 0
169 190 0
170 227 0
171 228 0
173 247 0
174 191 0
174 230 0
174 214 0
175 216 0
175 232 0
176 186 0
177 242 0
177 238 0
177 209 0
178 236 0
178 243 0
179 195 0
182 208 0
183 216 0
185 219 0
185 225 0
187 250 0
188 220 0
189 224 0
190 198 0
192 239 0
194 221 0
197 244 0
198 202 0
198 230 0
199 245 0
200 231 0
201 242 0
201 215 0
202 239 0
203 235 0
207 241 0
209 226 0
212 250 0
220 240 0
228 232 0
229 248 0
239 249 0
245 246 0
g -152